RLT07
Position Depot: Center
Horizon for Depot: Large
Position of customers: Random
Distribution of the demand: Small
Width of time windows: Tight
Distribution of the service: Large

VEHICLE 
NUMBER 	 CAPACITY 
 6 	 	 57 
 
CUSTOMER
CUST NO. 	 XCOORD.  	 YCOORD. 	 DEMAND 	 READY TIME 	 DUE DATE 	 SERVICE TIME 
 0 	 	 500 	 	 500 	 	 0 	 	 0 	 	 4871 	 	 0 
  1 	 	 673 	 	 116 	 	 5 	 	 1988 	 	 2144 	 	 118 
  2 	 	 834 	 	 355 	 	 5 	 	 334 	 	 483 	 	 178 
  3 	 	 639 	 	 841 	 	 6 	 	 1210 	 	 1397 	 	 173 
  4 	 	 501 	 	 896 	 	 6 	 	 2809 	 	 2960 	 	 165 
  5 	 	 810 	 	 816 	 	 9 	 	 1336 	 	 1469 	 	 167 
  6 	 	 876 	 	 72 	 	 10 	 	 573 	 	 626 	 	 173 
  7 	 	 305 	 	 101 	 	 8 	 	 688 	 	 738 	 	 184 
  8 	 	 48 	 	 759 	 	 7 	 	 4431 	 	 4559 	 	 175 
  9 	 	 954 	 	 637 	 	 7 	 	 3683 	 	 3831 	 	 115 
  10 	 	 831 	 	 986 	 	 10 	 	 1766 	 	 1894 	 	 182 
  11 	 	 681 	 	 797 	 	 6 	 	 4086 	 	 4264 	 	 195 
  12 	 	 961 	 	 24 	 	 7 	 	 3619 	 	 3693 	 	 155 
  13 	 	 831 	 	 688 	 	 6 	 	 2211 	 	 2290 	 	 147 
  14 	 	 258 	 	 777 	 	 6 	 	 2648 	 	 2734 	 	 171 
  15 	 	 228 	 	 962 	 	 9 	 	 481 	 	 589 	 	 190 
  16 	 	 860 	 	 494 	 	 7 	 	 965 	 	 1119 	 	 185 
  17 	 	 351 	 	 437 	 	 9 	 	 3565 	 	 3643 	 	 132 
  18 	 	 54 	 	 540 	 	 7 	 	 4154 	 	 4285 	 	 125 
  19 	 	 1000 	 	 213 	 	 6 	 	 1909 	 	 2055 	 	 144 
  20 	 	 262 	 	 892 	 	 5 	 	 3941 	 	 4120 	 	 117 
  21 	 	 437 	 	 783 	 	 8 	 	 649 	 	 831 	 	 135 
  22 	 	 102 	 	 224 	 	 5 	 	 3413 	 	 3566 	 	 118 
  23 	 	 117 	 	 682 	 	 8 	 	 4190 	 	 4295 	 	 120 
  24 	 	 220 	 	 279 	 	 7 	 	 2605 	 	 2743 	 	 195 
  25 	 	 257 	 	 580 	 	 6 	 	 201 	 	 307 	 	 132 
  26 	 	 945 	 	 493 	 	 9 	 	 4363 	 	 4417 	 	 143 
  27 	 	 17 	 	 931 	 	 6 	 	 1587 	 	 1703 	 	 182 
  28 	 	 930 	 	 235 	 	 5 	 	 3418 	 	 3562 	 	 188 
  29 	 	 379 	 	 770 	 	 6 	 	 838 	 	 889 	 	 150 
  30 	 	 347 	 	 586 	 	 7 	 	 3292 	 	 3429 	 	 175 
  31 	 	 808 	 	 707 	 	 7 	 	 3237 	 	 3357 	 	 198 
  32 	 	 361 	 	 628 	 	 5 	 	 3528 	 	 3635 	 	 178 
  33 	 	 483 	 	 902 	 	 7 	 	 2287 	 	 2344 	 	 113 
  34 	 	 608 	 	 543 	 	 5 	 	 1347 	 	 1454 	 	 198 
  35 	 	 902 	 	 548 	 	 8 	 	 2328 	 	 2486 	 	 151 
  36 	 	 636 	 	 4 	 	 5 	 	 3206 	 	 3295 	 	 193 
  37 	 	 601 	 	 212 	 	 8 	 	 3137 	 	 3313 	 	 112 
  38 	 	 419 	 	 939 	 	 10 	 	 1263 	 	 1439 	 	 127 
  39 	 	 671 	 	 316 	 	 9 	 	 233 	 	 359 	 	 137 
  40 	 	 806 	 	 142 	 	 7 	 	 4149 	 	 4276 	 	 160 
  41 	 	 136 	 	 446 	 	 7 	 	 4205 	 	 4337 	 	 126 
  42 	 	 284 	 	 40 	 	 7 	 	 4016 	 	 4213 	 	 137 
  43 	 	 509 	 	 306 	 	 7 	 	 1246 	 	 1370 	 	 133 
  44 	 	 818 	 	 917 	 	 7 	 	 1162 	 	 1278 	 	 149 
  45 	 	 902 	 	 689 	 	 8 	 	 4007 	 	 4100 	 	 149 
  46 	 	 40 	 	 94 	 	 9 	 	 1619 	 	 1750 	 	 106 
  47 	 	 535 	 	 763 	 	 7 	 	 250 	 	 406 	 	 113 
  48 	 	 978 	 	 632 	 	 10 	 	 2611 	 	 2694 	 	 101 
  49 	 	 352 	 	 247 	 	 9 	 	 2811 	 	 2993 	 	 155 
  50 	 	 960 	 	 729 	 	 6 	 	 4226 	 	 4297 	 	 104 
 